# Solution for model Manpower planning
# Objective value = 8.4179687500000000e+02
Recruit[0,0] 0
Recruit[0,1] 0
Recruit[0,2] 0
Recruit[1,0] 0
Recruit[1,1] 6.4930355674342081e+02
Recruit[1,2] 6.7697368421052624e+02
Recruit[2,0] 0
Recruit[2,1] 500
Recruit[2,2] 500
ShortTime[0,0] 50
ShortTime[0,1] 50
ShortTime[0,2] 50
ShortTime[1,0] 50
ShortTime[1,1] 0
ShortTime[1,2] 0
ShortTime[2,0] 50
ShortTime[2,1] 0
ShortTime[2,2] 0
LaborForce[0,0] 1.1570312500000000e+03
LaborForce[0,1] 675
LaborForce[0,2] 175
LaborForce[1,0] 1.4429687500000000e+03
LaborForce[1,1] 2000
LaborForce[1,2] 2500
LaborForce[2,0] 1025
LaborForce[2,1] 1500
LaborForce[2,2] 2000
Redundant[0,0] 4.4296875000000000e+02
Redundant[0,1] 1.6632812500000000e+02
Redundant[0,2] 232.5
Redundant[1,0] 0
Redundant[1,1] 0
Redundant[1,2] 0
Redundant[2,0] 0
Redundant[2,1] 0
Redundant[2,2] 0
OverManned[0,0] 1.3203125000000000e+02
OverManned[0,1] 150
OverManned[0,2] 150
OverManned[1,0] 1.7968750000000000e+01
OverManned[1,1] 0
OverManned[1,2] 0
OverManned[2,0] 0
OverManned[2,1] 0
OverManned[2,2] 0
Retrain[0,0,0] 0
Retrain[0,0,1] 0
Retrain[0,0,2] 0
Retrain[0,1,0] 200
Retrain[0,1,1] 200
Retrain[0,1,2] 200
Retrain[0,2,0] 0
Retrain[0,2,1] 0
Retrain[0,2,2] 0
Retrain[1,0,0] 0
Retrain[1,0,1] 0
Retrain[1,0,2] 0
Retrain[1,1,0] 0
Retrain[1,1,1] 0
Retrain[1,1,2] 0
Retrain[1,2,0] 256.25
Retrain[1,2,1] 8.0263157894736850e+01
Retrain[1,2,2] 1.3157894736842107e+02
Retrain[2,0,0] 0
Retrain[2,0,1] 0
Retrain[2,0,2] 0
Retrain[2,1,0] 1.6843750000000000e+02
Retrain[2,1,1] 0
Retrain[2,1,2] 0
Retrain[2,2,0] 0
Retrain[2,2,1] 0
Retrain[2,2,2] 0
